p cnf 142 254
73 0
-1 73 0
1 -73 0
74 0
-2 74 0
2 -74 0
75 0
-3 75 0
3 -75 0
76 0
-4 76 0
4 -76 0
77 0
-5 77 0
5 -77 0
78 0
-6 78 0
6 -78 0
79 0
-7 79 0
7 -79 0
80 0
-8 80 0
8 -80 0
81 0
-9 81 0
9 -81 0
82 0
-10 82 0
10 -82 0
83 0
-11 83 0
11 -83 0
84 0
-12 84 0
12 -84 0
85 0
-13 85 0
13 -85 0
86 0
-14 86 0
14 -86 0
87 0
-15 87 0
15 -87 0
88 0
-16 88 0
16 -88 0
89 0
-17 89 0
17 -89 0
90 0
-18 90 0
18 -90 0
91 0
-19 91 0
19 -91 0
92 0
-20 92 0
20 -92 0
93 0
-21 93 0
21 -93 0
94 0
-22 94 0
22 -94 0
95 0
-23 95 0
23 -95 0
96 0
-24 96 0
24 -96 0
97 0
-25 97 0
25 -97 0
98 0
-26 98 0
26 -98 0
99 -70 0
-99 70 0
100 -50 -35 0
-100 50 0
-100 35 0
-27 99 100 0
27 -99 0
27 -100 0
101 -51 -35 0
-101 51 0
-101 35 0
102 -71 0
-102 71 0
-29 101 102 0
29 -101 0
29 -102 0
103 -52 -35 0
-103 52 0
-103 35 0
104 -62 0
-104 62 0
-31 103 104 0
31 -103 0
31 -104 0
105 -43 -39 0
-105 43 0
-105 39 0
106 -61 0
-106 61 0
-33 105 106 0
33 -105 0
33 -106 0
107 -65 0
-107 65 0
108 -48 -37 0
-108 48 0
-108 37 0
109 -59 -70 0
-109 59 0
-109 70 0
110 -57 -71 0
-110 57 0
-110 71 0
111 -44 -69 0
-111 44 0
-111 69 0
-35 107 108 109 110 111 0
35 -107 0
35 -108 0
35 -109 0
35 -110 0
35 -111 0
112 -53 -65 0
-112 53 0
-112 65 0
113 -45 -66 0
-113 45 0
-113 66 0
114 -38 0
-114 38 0
115 -58 -63 0
-115 58 0
-115 63 0
116 -60 -64 0
-116 60 0
-116 64 0
-37 112 113 114 115 116 0
37 -112 0
37 -113 0
37 -114 0
37 -115 0
37 -116 0
117 -69 0
-117 69 0
118 -54 -35 0
-118 54 0
-118 35 0
-39 117 118 0
39 -117 0
39 -118 0
119 -42 0
-119 42 0
-41 119 0
41 -119 0
120 -34 0
-120 34 0
-61 120 0
61 -120 0
121 -32 0
-121 32 0
-62 121 0
62 -121 0
122 -72 0
-122 72 0
123 -51 -65 0
-123 51 0
-123 65 0
-63 122 123 0
63 -122 0
63 -123 0
124 -50 -65 0
-124 50 0
-124 65 0
125 -67 0
-125 67 0
-64 124 125 0
64 -124 0
64 -125 0
126 -57 -72 0
-126 57 0
-126 72 0
127 -36 0
-127 36 0
128 -44 -68 0
-128 44 0
-128 68 0
129 -59 -67 0
-129 59 0
-129 67 0
130 -56 -62 0
-130 56 0
-130 62 0
-65 126 127 128 129 130 0
65 -126 0
65 -127 0
65 -128 0
65 -129 0
65 -130 0
131 -68 0
-131 68 0
132 -54 -65 0
-132 54 0
-132 65 0
-66 131 132 0
66 -131 0
66 -132 0
133 -28 0
-133 28 0
-67 133 0
67 -133 0
134 -55 -61 0
-134 55 0
-134 61 0
135 -40 0
-135 40 0
-68 134 135 0
68 -134 0
68 -135 0
136 -49 -37 0
-136 49 0
-136 37 0
137 -66 0
-137 66 0
-69 136 137 0
69 -136 0
69 -137 0
138 -64 0
-138 64 0
139 -46 -37 0
-139 46 0
-139 37 0
-70 138 139 0
70 -138 0
70 -139 0
140 -47 -37 0
-140 47 0
-140 37 0
141 -63 0
-141 63 0
-71 140 141 0
71 -140 0
71 -141 0
142 -30 0
-142 30 0
-72 142 0
72 -142 0
c p weight 1 1.0;1.0;1.0;1.0;1.0;1.0;1.0;1.0 0
c p weight -1 1.0;1.0;1.0;1.0;1.0;1.0;1.0;1.0 0
c p weight 2 1.0;1.0;1.0;1.0;1.0;1.0;1.0;1.0 0
c p weight -2 1.0;1.0;1.0;1.0;1.0;1.0;1.0;1.0 0
c p weight 3 1.0;1.0;1.0;1.0;1.0;1.0;1.0;1.0 0
c p weight -3 1.0;1.0;1.0;1.0;1.0;1.0;1.0;1.0 0
c p weight 4 1.0;1.0;1.0;1.0;1.0;1.0;1.0;1.0 0
c p weight -4 1.0;1.0;1.0;1.0;1.0;1.0;1.0;1.0 0
c p weight 5 1.0;1.0;1.0;1.0;1.0;1.0;1.0;1.0 0
c p weight -5 1.0;1.0;1.0;1.0;1.0;1.0;1.0;1.0 0
c p weight 6 1.0;1.0;1.0;1.0;1.0;1.0;1.0;1.0 0
c p weight -6 1.0;1.0;1.0;1.0;1.0;1.0;1.0;1.0 0
c p weight 7 1.0;1.0;1.0;1.0;1.0;1.0;1.0;1.0 0
c p weight -7 1.0;1.0;1.0;1.0;1.0;1.0;1.0;1.0 0
c p weight 8 1.0;1.0;1.0;1.0;1.0;1.0;1.0;1.0 0
c p weight -8 1.0;1.0;1.0;1.0;1.0;1.0;1.0;1.0 0
c p weight 9 1.0;1.0;1.0;1.0;1.0;1.0;1.0;1.0 0
c p weight -9 1.0;1.0;1.0;1.0;1.0;1.0;1.0;1.0 0
c p weight 10 1.0;1.0;1.0;1.0;1.0;1.0;1.0;1.0 0
c p weight -10 1.0;1.0;1.0;1.0;1.0;1.0;1.0;1.0 0
c p weight 11 1.0;1.0;1.0;1.0;1.0;1.0;1.0;1.0 0
c p weight -11 1.0;1.0;1.0;1.0;1.0;1.0;1.0;1.0 0
c p weight 12 1.0;1.0;1.0;1.0;1.0;1.0;1.0;1.0 0
c p weight -12 1.0;1.0;1.0;1.0;1.0;1.0;1.0;1.0 0
c p weight 13 1.0;1.0;1.0;1.0;1.0;1.0;1.0;1.0 0
c p weight -13 1.0;1.0;1.0;1.0;1.0;1.0;1.0;1.0 0
c p weight 14 1.0;1.0;1.0;1.0;1.0;1.0;1.0;1.0 0
c p weight -14 1.0;1.0;1.0;1.0;1.0;1.0;1.0;1.0 0
c p weight 15 1.0;1.0;1.0;1.0;1.0;1.0;1.0;1.0 0
c p weight -15 1.0;1.0;1.0;1.0;1.0;1.0;1.0;1.0 0
c p weight 16 1.0;1.0;1.0;1.0;1.0;1.0;1.0;1.0 0
c p weight -16 1.0;1.0;1.0;1.0;1.0;1.0;1.0;1.0 0
c p weight 17 1.0;1.0;1.0;1.0;1.0;1.0;1.0;1.0 0
c p weight -17 1.0;1.0;1.0;1.0;1.0;1.0;1.0;1.0 0
c p weight 18 1.0;1.0;1.0;1.0;1.0;1.0;1.0;1.0 0
c p weight -18 1.0;1.0;1.0;1.0;1.0;1.0;1.0;1.0 0
c p weight 19 1.0;1.0;1.0;1.0;1.0;1.0;1.0;1.0 0
c p weight -19 1.0;1.0;1.0;1.0;1.0;1.0;1.0;1.0 0
c p weight 20 1.0;1.0;1.0;1.0;1.0;1.0;1.0;1.0 0
c p weight -20 1.0;1.0;1.0;1.0;1.0;1.0;1.0;1.0 0
c p weight 21 1.0;1.0;1.0;1.0;1.0;1.0;1.0;1.0 0
c p weight -21 1.0;1.0;1.0;1.0;1.0;1.0;1.0;1.0 0
c p weight 22 1.0;1.0;1.0;1.0;1.0;1.0;1.0;1.0 0
c p weight -22 1.0;1.0;1.0;1.0;1.0;1.0;1.0;1.0 0
c p weight 23 1.0;1.0;1.0;1.0;1.0;1.0;1.0;1.0 0
c p weight -23 1.0;1.0;1.0;1.0;1.0;1.0;1.0;1.0 0
c p weight 24 1.0;1.0;1.0;1.0;1.0;1.0;1.0;1.0 0
c p weight -24 1.0;1.0;1.0;1.0;1.0;1.0;1.0;1.0 0
c p weight 25 1.0;1.0;1.0;1.0;1.0;1.0;1.0;1.0 0
c p weight -25 1.0;1.0;1.0;1.0;1.0;1.0;1.0;1.0 0
c p weight 26 1.0;1.0;1.0;1.0;1.0;1.0;1.0;1.0 0
c p weight -26 1.0;1.0;1.0;1.0;1.0;1.0;1.0;1.0 0
c p weight 27 1.0;1.0;1.0;1.0;1.0;1.0;1.0;1.0 0
c p weight -27 0.0;1.0;1.0;1.0;1.0;1.0;1.0;1.0 0
c p weight 28 0.5;0.5;0.5;0.5;0.5;0.5;0.5;0.5 0
c p weight -28 0.5;0.5;0.5;0.5;0.5;0.5;0.5;0.5 0
c p weight 29 1.0;1.0;1.0;1.0;1.0;1.0;1.0;1.0 0
c p weight -29 1.0;0.0;1.0;1.0;1.0;1.0;1.0;1.0 0
c p weight 30 0.5;0.5;0.5;0.5;0.5;0.5;0.5;0.5 0
c p weight -30 0.5;0.5;0.5;0.5;0.5;0.5;0.5;0.5 0
c p weight 31 1.0;1.0;1.0;1.0;1.0;1.0;1.0;1.0 0
c p weight -31 1.0;1.0;0.0;1.0;1.0;1.0;1.0;1.0 0
c p weight 32 0.5;0.5;0.5;0.5;0.5;0.5;0.5;0.5 0
c p weight -32 0.5;0.5;0.5;0.5;0.5;0.5;0.5;0.5 0
c p weight 33 1.0;1.0;1.0;1.0;1.0;1.0;1.0;1.0 0
c p weight -33 1.0;1.0;1.0;0.0;1.0;1.0;1.0;1.0 0
c p weight 34 0.5;0.5;0.5;0.5;0.5;0.5;0.5;0.5 0
c p weight -34 0.5;0.5;0.5;0.5;0.5;0.5;0.5;0.5 0
c p weight 35 1.0;1.0;1.0;1.0;1.0;1.0;1.0;1.0 0
c p weight -35 1.0;1.0;1.0;1.0;0.0;1.0;1.0;1.0 0
c p weight 36 0.5;0.5;0.5;0.5;0.5;0.5;0.5;0.5 0
c p weight -36 0.5;0.5;0.5;0.5;0.5;0.5;0.5;0.5 0
c p weight 37 1.0;1.0;1.0;1.0;1.0;1.0;1.0;1.0 0
c p weight -37 1.0;1.0;1.0;1.0;1.0;0.0;1.0;1.0 0
c p weight 38 0.5;0.5;0.5;0.5;0.5;0.5;0.5;0.5 0
c p weight -38 0.5;0.5;0.5;0.5;0.5;0.5;0.5;0.5 0
c p weight 39 1.0;1.0;1.0;1.0;1.0;1.0;1.0;1.0 0
c p weight -39 1.0;1.0;1.0;1.0;1.0;1.0;0.0;1.0 0
c p weight 40 0.5;0.5;0.5;0.5;0.5;0.5;0.5;0.5 0
c p weight -40 0.5;0.5;0.5;0.5;0.5;0.5;0.5;0.5 0
c p weight 41 1.0;1.0;1.0;1.0;1.0;1.0;1.0;1.0 0
c p weight -41 1.0;1.0;1.0;1.0;1.0;1.0;1.0;0.0 0
c p weight 42 0.5;0.5;0.5;0.5;0.5;0.5;0.5;0.5 0
c p weight -42 0.5;0.5;0.5;0.5;0.5;0.5;0.5;0.5 0
c p weight 43 0.5;0.5;0.5;0.5;0.5;0.5;0.5;0.5 0
c p weight -43 0.5;0.5;0.5;0.5;0.5;0.5;0.5;0.5 0
c p weight 44 0.5;0.5;0.5;0.5;0.5;0.5;0.5;0.5 0
c p weight -44 0.5;0.5;0.5;0.5;0.5;0.5;0.5;0.5 0
c p weight 45 0.5;0.5;0.5;0.5;0.5;0.5;0.5;0.5 0
c p weight -45 0.5;0.5;0.5;0.5;0.5;0.5;0.5;0.5 0
c p weight 46 0.5;0.5;0.5;0.5;0.5;0.5;0.5;0.5 0
c p weight -46 0.5;0.5;0.5;0.5;0.5;0.5;0.5;0.5 0
c p weight 47 0.5;0.5;0.5;0.5;0.5;0.5;0.5;0.5 0
c p weight -47 0.5;0.5;0.5;0.5;0.5;0.5;0.5;0.5 0
c p weight 48 0.5;0.5;0.5;0.5;0.5;0.5;0.5;0.5 0
c p weight -48 0.5;0.5;0.5;0.5;0.5;0.5;0.5;0.5 0
c p weight 49 0.5;0.5;0.5;0.5;0.5;0.5;0.5;0.5 0
c p weight -49 0.5;0.5;0.5;0.5;0.5;0.5;0.5;0.5 0
c p weight 50 0.5;0.5;0.5;0.5;0.5;0.5;0.5;0.5 0
c p weight -50 0.5;0.5;0.5;0.5;0.5;0.5;0.5;0.5 0
c p weight 51 0.5;0.5;0.5;0.5;0.5;0.5;0.5;0.5 0
c p weight -51 0.5;0.5;0.5;0.5;0.5;0.5;0.5;0.5 0
c p weight 52 0.5;0.5;0.5;0.5;0.5;0.5;0.5;0.5 0
c p weight -52 0.5;0.5;0.5;0.5;0.5;0.5;0.5;0.5 0
c p weight 53 0.5;0.5;0.5;0.5;0.5;0.5;0.5;0.5 0
c p weight -53 0.5;0.5;0.5;0.5;0.5;0.5;0.5;0.5 0
c p weight 54 0.5;0.5;0.5;0.5;0.5;0.5;0.5;0.5 0
c p weight -54 0.5;0.5;0.5;0.5;0.5;0.5;0.5;0.5 0
c p weight 55 0.5;0.5;0.5;0.5;0.5;0.5;0.5;0.5 0
c p weight -55 0.5;0.5;0.5;0.5;0.5;0.5;0.5;0.5 0
c p weight 56 0.5;0.5;0.5;0.5;0.5;0.5;0.5;0.5 0
c p weight -56 0.5;0.5;0.5;0.5;0.5;0.5;0.5;0.5 0
c p weight 57 0.5;0.5;0.5;0.5;0.5;0.5;0.5;0.5 0
c p weight -57 0.5;0.5;0.5;0.5;0.5;0.5;0.5;0.5 0
c p weight 58 0.5;0.5;0.5;0.5;0.5;0.5;0.5;0.5 0
c p weight -58 0.5;0.5;0.5;0.5;0.5;0.5;0.5;0.5 0
c p weight 59 0.5;0.5;0.5;0.5;0.5;0.5;0.5;0.5 0
c p weight -59 0.5;0.5;0.5;0.5;0.5;0.5;0.5;0.5 0
c p weight 60 0.5;0.5;0.5;0.5;0.5;0.5;0.5;0.5 0
c p weight -60 0.5;0.5;0.5;0.5;0.5;0.5;0.5;0.5 0
c p weight 61 1.0;1.0;1.0;1.0;1.0;1.0;1.0;1.0 0
c p weight -61 1.0;1.0;1.0;1.0;1.0;1.0;1.0;1.0 0
c p weight 62 1.0;1.0;1.0;1.0;1.0;1.0;1.0;1.0 0
c p weight -62 1.0;1.0;1.0;1.0;1.0;1.0;1.0;1.0 0
c p weight 63 1.0;1.0;1.0;1.0;1.0;1.0;1.0;1.0 0
c p weight -63 1.0;1.0;1.0;1.0;1.0;1.0;1.0;1.0 0
c p weight 64 1.0;1.0;1.0;1.0;1.0;1.0;1.0;1.0 0
c p weight -64 1.0;1.0;1.0;1.0;1.0;1.0;1.0;1.0 0
c p weight 65 1.0;1.0;1.0;1.0;1.0;1.0;1.0;1.0 0
c p weight -65 1.0;1.0;1.0;1.0;1.0;1.0;1.0;1.0 0
c p weight 66 1.0;1.0;1.0;1.0;1.0;1.0;1.0;1.0 0
c p weight -66 1.0;1.0;1.0;1.0;1.0;1.0;1.0;1.0 0
c p weight 67 1.0;1.0;1.0;1.0;1.0;1.0;1.0;1.0 0
c p weight -67 1.0;1.0;1.0;1.0;1.0;1.0;1.0;1.0 0
c p weight 68 1.0;1.0;1.0;1.0;1.0;1.0;1.0;1.0 0
c p weight -68 1.0;1.0;1.0;1.0;1.0;1.0;1.0;1.0 0
c p weight 69 1.0;1.0;1.0;1.0;1.0;1.0;1.0;1.0 0
c p weight -69 1.0;1.0;1.0;1.0;1.0;1.0;1.0;1.0 0
c p weight 70 1.0;1.0;1.0;1.0;1.0;1.0;1.0;1.0 0
c p weight -70 1.0;1.0;1.0;1.0;1.0;1.0;1.0;1.0 0
c p weight 71 1.0;1.0;1.0;1.0;1.0;1.0;1.0;1.0 0
c p weight -71 1.0;1.0;1.0;1.0;1.0;1.0;1.0;1.0 0
c p weight 72 1.0;1.0;1.0;1.0;1.0;1.0;1.0;1.0 0
c p weight -72 1.0;1.0;1.0;1.0;1.0;1.0;1.0;1.0 0
c p weight 73 1.0;1.0;1.0;1.0;1.0;1.0;1.0;1.0 0
c p weight -73 1.0;1.0;1.0;1.0;1.0;1.0;1.0;1.0 0
c p weight 74 1.0;1.0;1.0;1.0;1.0;1.0;1.0;1.0 0
c p weight -74 1.0;1.0;1.0;1.0;1.0;1.0;1.0;1.0 0
c p weight 75 1.0;1.0;1.0;1.0;1.0;1.0;1.0;1.0 0
c p weight -75 1.0;1.0;1.0;1.0;1.0;1.0;1.0;1.0 0
c p weight 76 1.0;1.0;1.0;1.0;1.0;1.0;1.0;1.0 0
c p weight -76 1.0;1.0;1.0;1.0;1.0;1.0;1.0;1.0 0
c p weight 77 1.0;1.0;1.0;1.0;1.0;1.0;1.0;1.0 0
c p weight -77 1.0;1.0;1.0;1.0;1.0;1.0;1.0;1.0 0
c p weight 78 1.0;1.0;1.0;1.0;1.0;1.0;1.0;1.0 0
c p weight -78 1.0;1.0;1.0;1.0;1.0;1.0;1.0;1.0 0
c p weight 79 1.0;1.0;1.0;1.0;1.0;1.0;1.0;1.0 0
c p weight -79 1.0;1.0;1.0;1.0;1.0;1.0;1.0;1.0 0
c p weight 80 1.0;1.0;1.0;1.0;1.0;1.0;1.0;1.0 0
c p weight -80 1.0;1.0;1.0;1.0;1.0;1.0;1.0;1.0 0
c p weight 81 1.0;1.0;1.0;1.0;1.0;1.0;1.0;1.0 0
c p weight -81 1.0;1.0;1.0;1.0;1.0;1.0;1.0;1.0 0
c p weight 82 1.0;1.0;1.0;1.0;1.0;1.0;1.0;1.0 0
c p weight -82 1.0;1.0;1.0;1.0;1.0;1.0;1.0;1.0 0
c p weight 83 1.0;1.0;1.0;1.0;1.0;1.0;1.0;1.0 0
c p weight -83 1.0;1.0;1.0;1.0;1.0;1.0;1.0;1.0 0
c p weight 84 1.0;1.0;1.0;1.0;1.0;1.0;1.0;1.0 0
c p weight -84 1.0;1.0;1.0;1.0;1.0;1.0;1.0;1.0 0
c p weight 85 1.0;1.0;1.0;1.0;1.0;1.0;1.0;1.0 0
c p weight -85 1.0;1.0;1.0;1.0;1.0;1.0;1.0;1.0 0
c p weight 86 1.0;1.0;1.0;1.0;1.0;1.0;1.0;1.0 0
c p weight -86 1.0;1.0;1.0;1.0;1.0;1.0;1.0;1.0 0
c p weight 87 1.0;1.0;1.0;1.0;1.0;1.0;1.0;1.0 0
c p weight -87 1.0;1.0;1.0;1.0;1.0;1.0;1.0;1.0 0
c p weight 88 1.0;1.0;1.0;1.0;1.0;1.0;1.0;1.0 0
c p weight -88 1.0;1.0;1.0;1.0;1.0;1.0;1.0;1.0 0
c p weight 89 1.0;1.0;1.0;1.0;1.0;1.0;1.0;1.0 0
c p weight -89 1.0;1.0;1.0;1.0;1.0;1.0;1.0;1.0 0
c p weight 90 1.0;1.0;1.0;1.0;1.0;1.0;1.0;1.0 0
c p weight -90 1.0;1.0;1.0;1.0;1.0;1.0;1.0;1.0 0
c p weight 91 1.0;1.0;1.0;1.0;1.0;1.0;1.0;1.0 0
c p weight -91 1.0;1.0;1.0;1.0;1.0;1.0;1.0;1.0 0
c p weight 92 1.0;1.0;1.0;1.0;1.0;1.0;1.0;1.0 0
c p weight -92 1.0;1.0;1.0;1.0;1.0;1.0;1.0;1.0 0
c p weight 93 1.0;1.0;1.0;1.0;1.0;1.0;1.0;1.0 0
c p weight -93 1.0;1.0;1.0;1.0;1.0;1.0;1.0;1.0 0
c p weight 94 1.0;1.0;1.0;1.0;1.0;1.0;1.0;1.0 0
c p weight -94 1.0;1.0;1.0;1.0;1.0;1.0;1.0;1.0 0
c p weight 95 1.0;1.0;1.0;1.0;1.0;1.0;1.0;1.0 0
c p weight -95 1.0;1.0;1.0;1.0;1.0;1.0;1.0;1.0 0
c p weight 96 1.0;1.0;1.0;1.0;1.0;1.0;1.0;1.0 0
c p weight -96 1.0;1.0;1.0;1.0;1.0;1.0;1.0;1.0 0
c p weight 97 1.0;1.0;1.0;1.0;1.0;1.0;1.0;1.0 0
c p weight -97 1.0;1.0;1.0;1.0;1.0;1.0;1.0;1.0 0
c p weight 98 1.0;1.0;1.0;1.0;1.0;1.0;1.0;1.0 0
c p weight -98 1.0;1.0;1.0;1.0;1.0;1.0;1.0;1.0 0
c p weight 99 1.0;1.0;1.0;1.0;1.0;1.0;1.0;1.0 0
c p weight -99 1.0;1.0;1.0;1.0;1.0;1.0;1.0;1.0 0
c p weight 100 1.0;1.0;1.0;1.0;1.0;1.0;1.0;1.0 0
c p weight -100 1.0;1.0;1.0;1.0;1.0;1.0;1.0;1.0 0
c p weight 101 1.0;1.0;1.0;1.0;1.0;1.0;1.0;1.0 0
c p weight -101 1.0;1.0;1.0;1.0;1.0;1.0;1.0;1.0 0
c p weight 102 1.0;1.0;1.0;1.0;1.0;1.0;1.0;1.0 0
c p weight -102 1.0;1.0;1.0;1.0;1.0;1.0;1.0;1.0 0
c p weight 103 1.0;1.0;1.0;1.0;1.0;1.0;1.0;1.0 0
c p weight -103 1.0;1.0;1.0;1.0;1.0;1.0;1.0;1.0 0
c p weight 104 1.0;1.0;1.0;1.0;1.0;1.0;1.0;1.0 0
c p weight -104 1.0;1.0;1.0;1.0;1.0;1.0;1.0;1.0 0
c p weight 105 1.0;1.0;1.0;1.0;1.0;1.0;1.0;1.0 0
c p weight -105 1.0;1.0;1.0;1.0;1.0;1.0;1.0;1.0 0
c p weight 106 1.0;1.0;1.0;1.0;1.0;1.0;1.0;1.0 0
c p weight -106 1.0;1.0;1.0;1.0;1.0;1.0;1.0;1.0 0
c p weight 107 1.0;1.0;1.0;1.0;1.0;1.0;1.0;1.0 0
c p weight -107 1.0;1.0;1.0;1.0;1.0;1.0;1.0;1.0 0
c p weight 108 1.0;1.0;1.0;1.0;1.0;1.0;1.0;1.0 0
c p weight -108 1.0;1.0;1.0;1.0;1.0;1.0;1.0;1.0 0
c p weight 109 1.0;1.0;1.0;1.0;1.0;1.0;1.0;1.0 0
c p weight -109 1.0;1.0;1.0;1.0;1.0;1.0;1.0;1.0 0
c p weight 110 1.0;1.0;1.0;1.0;1.0;1.0;1.0;1.0 0
c p weight -110 1.0;1.0;1.0;1.0;1.0;1.0;1.0;1.0 0
c p weight 111 1.0;1.0;1.0;1.0;1.0;1.0;1.0;1.0 0
c p weight -111 1.0;1.0;1.0;1.0;1.0;1.0;1.0;1.0 0
c p weight 112 1.0;1.0;1.0;1.0;1.0;1.0;1.0;1.0 0
c p weight -112 1.0;1.0;1.0;1.0;1.0;1.0;1.0;1.0 0
c p weight 113 1.0;1.0;1.0;1.0;1.0;1.0;1.0;1.0 0
c p weight -113 1.0;1.0;1.0;1.0;1.0;1.0;1.0;1.0 0
c p weight 114 1.0;1.0;1.0;1.0;1.0;1.0;1.0;1.0 0
c p weight -114 1.0;1.0;1.0;1.0;1.0;1.0;1.0;1.0 0
c p weight 115 1.0;1.0;1.0;1.0;1.0;1.0;1.0;1.0 0
c p weight -115 1.0;1.0;1.0;1.0;1.0;1.0;1.0;1.0 0
c p weight 116 1.0;1.0;1.0;1.0;1.0;1.0;1.0;1.0 0
c p weight -116 1.0;1.0;1.0;1.0;1.0;1.0;1.0;1.0 0
c p weight 117 1.0;1.0;1.0;1.0;1.0;1.0;1.0;1.0 0
c p weight -117 1.0;1.0;1.0;1.0;1.0;1.0;1.0;1.0 0
c p weight 118 1.0;1.0;1.0;1.0;1.0;1.0;1.0;1.0 0
c p weight -118 1.0;1.0;1.0;1.0;1.0;1.0;1.0;1.0 0
c p weight 119 1.0;1.0;1.0;1.0;1.0;1.0;1.0;1.0 0
c p weight -119 1.0;1.0;1.0;1.0;1.0;1.0;1.0;1.0 0
c p weight 120 1.0;1.0;1.0;1.0;1.0;1.0;1.0;1.0 0
c p weight -120 1.0;1.0;1.0;1.0;1.0;1.0;1.0;1.0 0
c p weight 121 1.0;1.0;1.0;1.0;1.0;1.0;1.0;1.0 0
c p weight -121 1.0;1.0;1.0;1.0;1.0;1.0;1.0;1.0 0
c p weight 122 1.0;1.0;1.0;1.0;1.0;1.0;1.0;1.0 0
c p weight -122 1.0;1.0;1.0;1.0;1.0;1.0;1.0;1.0 0
c p weight 123 1.0;1.0;1.0;1.0;1.0;1.0;1.0;1.0 0
c p weight -123 1.0;1.0;1.0;1.0;1.0;1.0;1.0;1.0 0
c p weight 124 1.0;1.0;1.0;1.0;1.0;1.0;1.0;1.0 0
c p weight -124 1.0;1.0;1.0;1.0;1.0;1.0;1.0;1.0 0
c p weight 125 1.0;1.0;1.0;1.0;1.0;1.0;1.0;1.0 0
c p weight -125 1.0;1.0;1.0;1.0;1.0;1.0;1.0;1.0 0
c p weight 126 1.0;1.0;1.0;1.0;1.0;1.0;1.0;1.0 0
c p weight -126 1.0;1.0;1.0;1.0;1.0;1.0;1.0;1.0 0
c p weight 127 1.0;1.0;1.0;1.0;1.0;1.0;1.0;1.0 0
c p weight -127 1.0;1.0;1.0;1.0;1.0;1.0;1.0;1.0 0
c p weight 128 1.0;1.0;1.0;1.0;1.0;1.0;1.0;1.0 0
c p weight -128 1.0;1.0;1.0;1.0;1.0;1.0;1.0;1.0 0
c p weight 129 1.0;1.0;1.0;1.0;1.0;1.0;1.0;1.0 0
c p weight -129 1.0;1.0;1.0;1.0;1.0;1.0;1.0;1.0 0
c p weight 130 1.0;1.0;1.0;1.0;1.0;1.0;1.0;1.0 0
c p weight -130 1.0;1.0;1.0;1.0;1.0;1.0;1.0;1.0 0
c p weight 131 1.0;1.0;1.0;1.0;1.0;1.0;1.0;1.0 0
c p weight -131 1.0;1.0;1.0;1.0;1.0;1.0;1.0;1.0 0
c p weight 132 1.0;1.0;1.0;1.0;1.0;1.0;1.0;1.0 0
c p weight -132 1.0;1.0;1.0;1.0;1.0;1.0;1.0;1.0 0
c p weight 133 1.0;1.0;1.0;1.0;1.0;1.0;1.0;1.0 0
c p weight -133 1.0;1.0;1.0;1.0;1.0;1.0;1.0;1.0 0
c p weight 134 1.0;1.0;1.0;1.0;1.0;1.0;1.0;1.0 0
c p weight -134 1.0;1.0;1.0;1.0;1.0;1.0;1.0;1.0 0
c p weight 135 1.0;1.0;1.0;1.0;1.0;1.0;1.0;1.0 0
c p weight -135 1.0;1.0;1.0;1.0;1.0;1.0;1.0;1.0 0
c p weight 136 1.0;1.0;1.0;1.0;1.0;1.0;1.0;1.0 0
c p weight -136 1.0;1.0;1.0;1.0;1.0;1.0;1.0;1.0 0
c p weight 137 1.0;1.0;1.0;1.0;1.0;1.0;1.0;1.0 0
c p weight -137 1.0;1.0;1.0;1.0;1.0;1.0;1.0;1.0 0
c p weight 138 1.0;1.0;1.0;1.0;1.0;1.0;1.0;1.0 0
c p weight -138 1.0;1.0;1.0;1.0;1.0;1.0;1.0;1.0 0
c p weight 139 1.0;1.0;1.0;1.0;1.0;1.0;1.0;1.0 0
c p weight -139 1.0;1.0;1.0;1.0;1.0;1.0;1.0;1.0 0
c p weight 140 1.0;1.0;1.0;1.0;1.0;1.0;1.0;1.0 0
c p weight -140 1.0;1.0;1.0;1.0;1.0;1.0;1.0;1.0 0
c p weight 141 1.0;1.0;1.0;1.0;1.0;1.0;1.0;1.0 0
c p weight -141 1.0;1.0;1.0;1.0;1.0;1.0;1.0;1.0 0
c p weight 142 1.0;1.0;1.0;1.0;1.0;1.0;1.0;1.0 0
c p weight -142 1.0;1.0;1.0;1.0;1.0;1.0;1.0;1.0 0
c p semirings aspmc.semirings.probabilistic 0
c p quantify 1 2 3 4 5 6 7 8 9 10 11 12 13 14 15 16 17 18 19 20 21 22 23 24 25 26 27 28 29 30 31 32 33 34 35 36 37 38 39 40 41 42 43 44 45 46 47 48 49 50 51 52 53 54 55 56 57 58 59 60 61 62 63 64 65 66 67 68 69 70 71 72 73 74 75 76 77 78 79 80 81 82 83 84 85 86 87 88 89 90 91 92 93 94 95 96 97 98 99 100 101 102 103 104 105 106 107 108 109 110 111 112 113 114 115 116 117 118 119 120 121 122 123 124 125 126 127 128 129 130 131 132 133 134 135 136 137 138 139 140 141 142 0
c p auxilliary 1 2 3 4 5 6 7 8 9 10 11 12 13 14 15 16 17 18 19 20 21 22 23 24 25 26 61 62 63 64 65 66 67 68 69 70 71 72 73 74 75 76 77 78 79 80 81 82 83 84 85 86 87 88 89 90 91 92 93 94 95 96 97 98 99 100 101 102 103 104 105 106 107 108 109 110 111 112 113 114 115 116 117 118 119 120 121 122 123 124 125 126 127 128 129 130 131 132 133 134 135 136 137 138 139 140 141 142 0
